;(set-option :produce-unsat-cores true )
(set-logic ALL_SUPPORTED )
(declare-sort Ref$ 0 )
(declare-sort Ref_set$ 0 )
(declare-sort Ref_ref_fun$ 0 )
(declare-sort Dag_bool_fun$ 0 )
(declare-sort Ref_ref_ref_fun_fun$ 0 )
(declare-sort Ref_ref_ref_ref_fun_fun_fun$ 0 )
(declare-datatypes ()((Dag$ (tip$ )(node$ (select$ Dag$ )(selecta$ Ref$ )(selectb$ Dag$ )))))
(declare-fun l$ ()Ref_ref_fun$ )
(declare-fun p$ ()Ref$ )
(declare-fun r$ ()Ref_ref_fun$ )
(declare-fun t$ ()Dag$ )
(declare-fun dag$ (Ref$ Ref_ref_fun$ Ref_ref_fun$ )Dag_bool_fun$ )
(declare-fun null$ ()Ref$ )
(declare-fun member$ (Ref$ Ref_set$ )Bool )
(declare-fun set_of$ (Dag$ )Ref_set$ )
(declare-fun fun_app$ (Dag_bool_fun$ Dag$ )Bool )
(declare-fun fun_upd$ (Ref_ref_fun$ )Ref_ref_ref_ref_fun_fun_fun$ )
(declare-fun fun_app$a (Ref_ref_ref_fun_fun$ Ref$ )Ref_ref_fun$ )
(declare-fun fun_app$b (Ref_ref_ref_ref_fun_fun_fun$ Ref$ )Ref_ref_ref_fun_fun$ )
(declare-fun fun_app$c (Ref_ref_fun$ Ref$ )Ref$ )
(assert (! (not (= (fun_app$ (dag$ p$ l$ (fun_app$a (fun_app$b (fun_upd$ r$ )p$ )p$ ))t$ )(and (= p$ null$ )(= t$ tip$ )))):named a0 ))
(assert (! (not (= p$ null$ )):named a1 ))
(assert (! (forall ((?v0 Ref_ref_fun$ )(?v1 Ref_ref_fun$ )(?v2 Dag$ ))(= (fun_app$ (dag$ null$ ?v0 ?v1 )?v2 )(= ?v2 tip$ ))):named a2 ))
(assert (! (forall ((?v0 Ref$ )(?v1 Ref_ref_fun$ )(?v2 Ref_ref_fun$ )(?v3 Dag$ ))(= (fun_app$ (dag$ ?v0 (fun_app$a (fun_app$b (fun_upd$ ?v1 )?v0 )?v0 )?v2 )?v3 )(and (= ?v0 null$ )(= ?v3 tip$ )))):named a3 ))
(assert (! (forall ((?v0 Ref$ )(?v1 Ref_ref_fun$ )(?v2 Ref_ref_fun$ ))(! (= (fun_app$ (dag$ ?v0 ?v1 ?v2 )tip$ )(= ?v0 null$ )):pattern ((dag$ ?v0 ?v1 ?v2 )))):named a4 ))
(assert (! (forall ((?v0 Ref$ )(?v1 Ref_ref_fun$ )(?v2 Ref_ref_fun$ )(?v3 Dag$ ))(=> (not (= ?v0 null$ ))(not (fun_app$ (dag$ ?v0 (fun_app$a (fun_app$b (fun_upd$ ?v1 )?v0 )?v0 )?v2 )?v3 )))):named a5 ))
(assert (! (forall ((?v0 Ref$ )(?v1 Ref_ref_fun$ )(?v2 Ref_ref_fun$ )(?v3 Dag$ ))(=> (not (= ?v0 null$ ))(not (fun_app$ (dag$ ?v0 ?v1 (fun_app$a (fun_app$b (fun_upd$ ?v2 )?v0 )?v0 ))?v3 )))):named a6 ))
(assert (! (forall ((?v0 Ref_ref_fun$ )(?v1 Ref$ )(?v2 Ref$ )(?v3 Ref$ ))(! (= (fun_app$c (fun_app$a (fun_app$b (fun_upd$ ?v0 )?v1 )?v2 )?v3 )(ite (= ?v3 ?v1 )?v2 (fun_app$c ?v0 ?v3 ))):pattern ((fun_app$c (fun_app$a (fun_app$b (fun_upd$ ?v0 )?v1 )?v2 )?v3 )))):named a7 ))
(assert (! (forall ((?v0 Ref_ref_fun$ )(?v1 Ref$ )(?v2 Ref$ )(?v3 Ref$ ))(= (fun_app$a (fun_app$b (fun_upd$ (fun_app$a (fun_app$b (fun_upd$ ?v0 )?v1 )?v2 ))?v1 )?v3 )(fun_app$a (fun_app$b (fun_upd$ ?v0 )?v1 )?v3 ))):named a8 ))
(assert (! (forall ((?v0 Ref_ref_fun$ )(?v1 Ref$ ))(= (fun_app$a (fun_app$b (fun_upd$ ?v0 )?v1 )(fun_app$c ?v0 ?v1 ))?v0 )):named a9 ))
(assert (! (forall ((?v0 Ref$ )(?v1 Dag$ )(?v2 Ref$ )(?v3 Ref_ref_fun$ )(?v4 Ref$ )(?v5 Ref_ref_fun$ ))(=> (not (member$ ?v0 (set_of$ ?v1 )))(= (fun_app$ (dag$ ?v2 (fun_app$a (fun_app$b (fun_upd$ ?v3 )?v0 )?v4 )?v5 )?v1 )(fun_app$ (dag$ ?v2 ?v3 ?v5 )?v1 )))):named a10 ))
(assert (! (forall ((?v0 Ref$ )(?v1 Dag$ )(?v2 Ref$ )(?v3 Ref_ref_fun$ )(?v4 Ref_ref_fun$ )(?v5 Ref$ ))(=> (not (member$ ?v0 (set_of$ ?v1 )))(= (fun_app$ (dag$ ?v2 ?v3 (fun_app$a (fun_app$b (fun_upd$ ?v4 )?v0 )?v5 ))?v1 )(fun_app$ (dag$ ?v2 ?v3 ?v4 )?v1 )))):named a11 ))
(assert (! (forall ((?v0 Ref$ )(?v1 Ref_ref_fun$ )(?v2 Ref_ref_fun$ )(?v3 Dag$ ))(=> (fun_app$ (dag$ ?v0 ?v1 ?v2 )?v3 )(not (member$ null$ (set_of$ ?v3 ))))):named a12 ))
(assert (! (forall ((?v0 Ref$ )(?v1 Ref_ref_fun$ )(?v2 Ref_ref_fun$ )(?v3 Dag$ ))(=> (not (= ?v0 null$ ))(= (fun_app$ (dag$ ?v0 ?v1 ?v2 )?v3 )(exists ((?v4 Dag$ )(?v5 Dag$ ))(and (= ?v3 (node$ ?v4 ?v0 ?v5 ))(and (fun_app$ (dag$ (fun_app$c ?v1 ?v0 )?v1 ?v2 )?v4 )(fun_app$ (dag$ (fun_app$c ?v2 ?v0 )?v1 ?v2 )?v5 ))))))):named a13 ))
(assert (! (forall ((?v0 Ref$ )(?v1 Ref_ref_fun$ )(?v2 Ref_ref_fun$ )(?v3 Dag$ )(?v4 Ref$ )(?v5 Dag$ ))(! (= (fun_app$ (dag$ ?v0 ?v1 ?v2 )(node$ ?v3 ?v4 ?v5 ))(and (= ?v0 ?v4 )(and (not (= ?v0 null$ ))(and (fun_app$ (dag$ (fun_app$c ?v1 ?v0 )?v1 ?v2 )?v3 )(fun_app$ (dag$ (fun_app$c ?v2 ?v0 )?v1 ?v2 )?v5 ))))):pattern ((fun_app$ (dag$ ?v0 ?v1 ?v2 )(node$ ?v3 ?v4 ?v5 ))))):named a14 ))
(assert (! (forall ((?v0 Ref_ref_fun$ )(?v1 Ref$ )(?v2 Ref$ ))(= (= (fun_app$a (fun_app$b (fun_upd$ ?v0 )?v1 )?v2 )?v0 )(= (fun_app$c ?v0 ?v1 )?v2 ))):named a15 ))
(assert (! (forall ((?v0 Ref_ref_fun$ )(?v1 Ref$ )(?v2 Ref$ ))(! (= (fun_app$c (fun_app$a (fun_app$b (fun_upd$ ?v0 )?v1 )?v2 )?v1 )?v2 ):pattern ((fun_app$a (fun_app$b (fun_upd$ ?v0 )?v1 )?v2 )))):named a16 ))
(assert (! (forall ((?v0 Ref_ref_fun$ )(?v1 Ref$ )(?v2 Ref$ )(?v3 Ref$ ))(! (= (fun_app$c (fun_app$a (fun_app$b (fun_upd$ ?v0 )?v1 )?v2 )?v3 )(ite (= ?v3 ?v1 )?v2 (fun_app$c ?v0 ?v3 ))):pattern ((fun_app$c (fun_app$a (fun_app$b (fun_upd$ ?v0 )?v1 )?v2 )?v3 )))):named a17 ))
(check-sat )
;(get-unsat-core )
